(set-logic HORN)
(declare-fun inv ((_ BitVec 32) (_ BitVec 32) ) Bool)
(assert (forall ((i (_ BitVec 32)) (k (_ BitVec 32))) 
       (=> ( and ( = i (_ bv0 32) ) ( = k (_ bv0 32) ) ) (inv i k))))
(assert (forall ((i (_ BitVec 32)) (k (_ BitVec 32)) (i! (_ BitVec 32)) (k! (_ BitVec 32))) 
       (=> (and (inv i k) ( and ( bvslt i (_ bv1000 32) ) ( = i! ( bvadd i (_ bv1 32) ) ) ( = k! ( bvadd k ( bvmul i! i! ) ) ) )) (inv i! k!))))
(assert (forall ((i (_ BitVec 32)) (k (_ BitVec 32))) 
       (=> (inv i k) ( or ( bvslt i (_ bv1000 32) ) ( bvsle (_ bv1000000 32) k ) ))))
(check-sat)
